SAT
68 -57 66 30 94 -81 -99 -73 -29 -93 -45 -41 65 -25 -95 42 -90 5 -39 56 -100 33 -11 1 -59 13 14 97 34 27 75 -43 -36 -16 -10 98 -63 28 -7 20 31 80 -12 -23 -40 4 8 48 -19 35 88 -51 -46 -24 62 -96 -61 -60 67 70 -74 -52 21 -22 91 92 87 69 37 -78 53 -77 -18 86 84 85 32 55 -6 -26 -71 2 -3 -82 64 58 -89 -76 -47 50 72 83 -49 -15 9 79 38 44 -54 17 0
